Minimize
 obj: 0 X_0_1
Subject To
 out_0:
  + 1 X_0_1 + 1 X_0_2 + 1 X_0_3 + 1 X_0_4 + 1 X_0_5 + 1 X_0_6 + 1 X_0_7 + 1 X_0_8
  + 1 X_0_9
  = 1
 in_0:
  + 1 X_1_0 + 1 X_2_0 + 1 X_3_0 + 1 X_4_0 + 1 X_5_0 + 1 X_6_0 + 1 X_7_0 + 1 X_8_0
  + 1 X_9_0
  = 1
 out_1:
  + 1 X_1_0 + 1 X_1_2 + 1 X_1_3 + 1 X_1_4 + 1 X_1_5 + 1 X_1_6 + 1 X_1_7 + 1 X_1_8
  + 1 X_1_9
  = 1
 in_1:
  + 1 X_0_1 + 1 X_2_1 + 1 X_3_1 + 1 X_4_1 + 1 X_5_1 + 1 X_6_1 + 1 X_7_1 + 1 X_8_1
  + 1 X_9_1
  = 1
 out_2:
  + 1 X_2_0 + 1 X_2_1 + 1 X_2_3 + 1 X_2_4 + 1 X_2_5 + 1 X_2_6 + 1 X_2_7 + 1 X_2_8
  + 1 X_2_9
  = 1
 in_2:
  + 1 X_0_2 + 1 X_1_2 + 1 X_3_2 + 1 X_4_2 + 1 X_5_2 + 1 X_6_2 + 1 X_7_2 + 1 X_8_2
  + 1 X_9_2
  = 1
 out_3:
  + 1 X_3_0 + 1 X_3_1 + 1 X_3_2 + 1 X_3_4 + 1 X_3_5 + 1 X_3_6 + 1 X_3_7 + 1 X_3_8
  + 1 X_3_9
  = 1
 in_3:
  + 1 X_0_3 + 1 X_1_3 + 1 X_2_3 + 1 X_4_3 + 1 X_5_3 + 1 X_6_3 + 1 X_7_3 + 1 X_8_3
  + 1 X_9_3
  = 1
 out_4:
  + 1 X_4_0 + 1 X_4_1 + 1 X_4_2 + 1 X_4_3 + 1 X_4_5 + 1 X_4_6 + 1 X_4_7 + 1 X_4_8
  + 1 X_4_9
  = 1
 in_4:
  + 1 X_0_4 + 1 X_1_4 + 1 X_2_4 + 1 X_3_4 + 1 X_5_4 + 1 X_6_4 + 1 X_7_4 + 1 X_8_4
  + 1 X_9_4
  = 1
 out_5:
  + 1 X_5_0 + 1 X_5_1 + 1 X_5_2 + 1 X_5_3 + 1 X_5_4 + 1 X_5_6 + 1 X_5_7 + 1 X_5_8
  + 1 X_5_9
  = 1
 in_5:
  + 1 X_0_5 + 1 X_1_5 + 1 X_2_5 + 1 X_3_5 + 1 X_4_5 + 1 X_6_5 + 1 X_7_5 + 1 X_8_5
  + 1 X_9_5
  = 1
 out_6:
  + 1 X_6_0 + 1 X_6_1 + 1 X_6_2 + 1 X_6_3 + 1 X_6_4 + 1 X_6_5 + 1 X_6_7 + 1 X_6_8
  + 1 X_6_9
  = 1
 in_6:
  + 1 X_0_6 + 1 X_1_6 + 1 X_2_6 + 1 X_3_6 + 1 X_4_6 + 1 X_5_6 + 1 X_7_6 + 1 X_8_6
  + 1 X_9_6
  = 1
 out_7:
  + 1 X_7_0 + 1 X_7_1 + 1 X_7_2 + 1 X_7_3 + 1 X_7_4 + 1 X_7_5 + 1 X_7_6 + 1 X_7_8
  + 1 X_7_9
  = 1
 in_7:
  + 1 X_0_7 + 1 X_1_7 + 1 X_2_7 + 1 X_3_7 + 1 X_4_7 + 1 X_5_7 + 1 X_6_7 + 1 X_8_7
  + 1 X_9_7
  = 1
 out_8:
  + 1 X_8_0 + 1 X_8_1 + 1 X_8_2 + 1 X_8_3 + 1 X_8_4 + 1 X_8_5 + 1 X_8_6 + 1 X_8_7
  + 1 X_8_9
  = 1
 in_8:
  + 1 X_0_8 + 1 X_1_8 + 1 X_2_8 + 1 X_3_8 + 1 X_4_8 + 1 X_5_8 + 1 X_6_8 + 1 X_7_8
  + 1 X_9_8
  = 1
 out_9:
  + 1 X_9_0 + 1 X_9_1 + 1 X_9_2 + 1 X_9_3 + 1 X_9_4 + 1 X_9_5 + 1 X_9_6 + 1 X_9_7
  + 1 X_9_8
  = 1
 in_9:
  + 1 X_0_9 + 1 X_1_9 + 1 X_2_9 + 1 X_3_9 + 1 X_4_9 + 1 X_5_9 + 1 X_6_9 + 1 X_7_9
  + 1 X_8_9
  = 1
 mtz_1_2:
  + 1 U1 - 1 U2 + 9 X_1_2
  <= 8
 mtz_1_3:
  + 1 U1 - 1 U3 + 9 X_1_3
  <= 8
 mtz_1_4:
  + 1 U1 - 1 U4 + 9 X_1_4
  <= 8
 mtz_1_5:
  + 1 U1 - 1 U5 + 9 X_1_5
  <= 8
 mtz_1_6:
  + 1 U1 - 1 U6 + 9 X_1_6
  <= 8
 mtz_1_7:
  + 1 U1 - 1 U7 + 9 X_1_7
  <= 8
 mtz_1_8:
  + 1 U1 - 1 U8 + 9 X_1_8
  <= 8
 mtz_1_9:
  + 1 U1 - 1 U9 + 9 X_1_9
  <= 8
 mtz_2_1:
  + 1 U2 - 1 U1 + 9 X_2_1
  <= 8
 mtz_2_3:
  + 1 U2 - 1 U3 + 9 X_2_3
  <= 8
 mtz_2_4:
  + 1 U2 - 1 U4 + 9 X_2_4
  <= 8
 mtz_2_5:
  + 1 U2 - 1 U5 + 9 X_2_5
  <= 8
 mtz_2_6:
  + 1 U2 - 1 U6 + 9 X_2_6
  <= 8
 mtz_2_7:
  + 1 U2 - 1 U7 + 9 X_2_7
  <= 8
 mtz_2_8:
  + 1 U2 - 1 U8 + 9 X_2_8
  <= 8
 mtz_2_9:
  + 1 U2 - 1 U9 + 9 X_2_9
  <= 8
 mtz_3_1:
  + 1 U3 - 1 U1 + 9 X_3_1
  <= 8
 mtz_3_2:
  + 1 U3 - 1 U2 + 9 X_3_2
  <= 8
 mtz_3_4:
  + 1 U3 - 1 U4 + 9 X_3_4
  <= 8
 mtz_3_5:
  + 1 U3 - 1 U5 + 9 X_3_5
  <= 8
 mtz_3_6:
  + 1 U3 - 1 U6 + 9 X_3_6
  <= 8
 mtz_3_7:
  + 1 U3 - 1 U7 + 9 X_3_7
  <= 8
 mtz_3_8:
  + 1 U3 - 1 U8 + 9 X_3_8
  <= 8
 mtz_3_9:
  + 1 U3 - 1 U9 + 9 X_3_9
  <= 8
 mtz_4_1:
  + 1 U4 - 1 U1 + 9 X_4_1
  <= 8
 mtz_4_2:
  + 1 U4 - 1 U2 + 9 X_4_2
  <= 8
 mtz_4_3:
  + 1 U4 - 1 U3 + 9 X_4_3
  <= 8
 mtz_4_5:
  + 1 U4 - 1 U5 + 9 X_4_5
  <= 8
 mtz_4_6:
  + 1 U4 - 1 U6 + 9 X_4_6
  <= 8
 mtz_4_7:
  + 1 U4 - 1 U7 + 9 X_4_7
  <= 8
 mtz_4_8:
  + 1 U4 - 1 U8 + 9 X_4_8
  <= 8
 mtz_4_9:
  + 1 U4 - 1 U9 + 9 X_4_9
  <= 8
 mtz_5_1:
  + 1 U5 - 1 U1 + 9 X_5_1
  <= 8
 mtz_5_2:
  + 1 U5 - 1 U2 + 9 X_5_2
  <= 8
 mtz_5_3:
  + 1 U5 - 1 U3 + 9 X_5_3
  <= 8
 mtz_5_4:
  + 1 U5 - 1 U4 + 9 X_5_4
  <= 8
 mtz_5_6:
  + 1 U5 - 1 U6 + 9 X_5_6
  <= 8
 mtz_5_7:
  + 1 U5 - 1 U7 + 9 X_5_7
  <= 8
 mtz_5_8:
  + 1 U5 - 1 U8 + 9 X_5_8
  <= 8
 mtz_5_9:
  + 1 U5 - 1 U9 + 9 X_5_9
  <= 8
 mtz_6_1:
  + 1 U6 - 1 U1 + 9 X_6_1
  <= 8
 mtz_6_2:
  + 1 U6 - 1 U2 + 9 X_6_2
  <= 8
 mtz_6_3:
  + 1 U6 - 1 U3 + 9 X_6_3
  <= 8
 mtz_6_4:
  + 1 U6 - 1 U4 + 9 X_6_4
  <= 8
 mtz_6_5:
  + 1 U6 - 1 U5 + 9 X_6_5
  <= 8
 mtz_6_7:
  + 1 U6 - 1 U7 + 9 X_6_7
  <= 8
 mtz_6_8:
  + 1 U6 - 1 U8 + 9 X_6_8
  <= 8
 mtz_6_9:
  + 1 U6 - 1 U9 + 9 X_6_9
  <= 8
 mtz_7_1:
  + 1 U7 - 1 U1 + 9 X_7_1
  <= 8
 mtz_7_2:
  + 1 U7 - 1 U2 + 9 X_7_2
  <= 8
 mtz_7_3:
  + 1 U7 - 1 U3 + 9 X_7_3
  <= 8
 mtz_7_4:
  + 1 U7 - 1 U4 + 9 X_7_4
  <= 8
 mtz_7_5:
  + 1 U7 - 1 U5 + 9 X_7_5
  <= 8
 mtz_7_6:
  + 1 U7 - 1 U6 + 9 X_7_6
  <= 8
 mtz_7_8:
  + 1 U7 - 1 U8 + 9 X_7_8
  <= 8
 mtz_7_9:
  + 1 U7 - 1 U9 + 9 X_7_9
  <= 8
 mtz_8_1:
  + 1 U8 - 1 U1 + 9 X_8_1
  <= 8
 mtz_8_2:
  + 1 U8 - 1 U2 + 9 X_8_2
  <= 8
 mtz_8_3:
  + 1 U8 - 1 U3 + 9 X_8_3
  <= 8
 mtz_8_4:
  + 1 U8 - 1 U4 + 9 X_8_4
  <= 8
 mtz_8_5:
  + 1 U8 - 1 U5 + 9 X_8_5
  <= 8
 mtz_8_6:
  + 1 U8 - 1 U6 + 9 X_8_6
  <= 8
 mtz_8_7:
  + 1 U8 - 1 U7 + 9 X_8_7
  <= 8
 mtz_8_9:
  + 1 U8 - 1 U9 + 9 X_8_9
  <= 8
 mtz_9_1:
  + 1 U9 - 1 U1 + 9 X_9_1
  <= 8
 mtz_9_2:
  + 1 U9 - 1 U2 + 9 X_9_2
  <= 8
 mtz_9_3:
  + 1 U9 - 1 U3 + 9 X_9_3
  <= 8
 mtz_9_4:
  + 1 U9 - 1 U4 + 9 X_9_4
  <= 8
 mtz_9_5:
  + 1 U9 - 1 U5 + 9 X_9_5
  <= 8
 mtz_9_6:
  + 1 U9 - 1 U6 + 9 X_9_6
  <= 8
 mtz_9_7:
  + 1 U9 - 1 U7 + 9 X_9_7
  <= 8
 mtz_9_8:
  + 1 U9 - 1 U8 + 9 X_9_8
  <= 8
 obj1:
  + 529 X_0_1 + 491 X_0_2 + 551 X_0_3 + 424 X_0_4 + 1009 X_0_5 + 601 X_0_6 + 728 X_0_7 + 608 X_0_8
  + 398 X_0_9 + 529 X_1_0 + 458 X_1_2 + 533 X_1_3 + 179 X_1_4 + 679 X_1_5 + 281 X_1_6 + 379 X_1_7
  + 771 X_1_8 + 135 X_1_9 + 491 X_2_0 + 458 X_2_1 + 79 X_2_3 + 287 X_2_4 + 549 X_2_5 + 262 X_2_6
  + 336 X_2_7 + 321 X_2_8 + 378 X_2_9 + 551 X_3_0 + 533 X_3_1 + 79 X_3_2 + 364 X_3_4 + 530 X_3_5
  + 313 X_3_6 + 362 X_3_7 + 266 X_3_8 + 457 X_3_9 + 424 X_4_0 + 179 X_4_1 + 287 X_4_2 + 364 X_4_3
  + 630 X_4_5 + 198 X_4_6 + 326 X_4_7 + 593 X_4_8 + 99 X_4_9 + 1009 X_5_0 + 679 X_5_1 + 549 X_5_2
  + 530 X_5_3 + 630 X_5_4 + 432 X_5_6 + 307 X_5_7 + 739 X_5_8 + 715 X_5_9 + 601 X_6_0 + 281 X_6_1
  + 262 X_6_2 + 313 X_6_3 + 198 X_6_4 + 432 X_6_5 + 129 X_6_7 + 578 X_6_8 + 284 X_6_9 + 728 X_7_0
  + 379 X_7_1 + 336 X_7_2 + 362 X_7_3 + 326 X_7_4 + 307 X_7_5 + 129 X_7_6 + 625 X_7_8 + 408 X_7_9
  + 608 X_8_0 + 771 X_8_1 + 321 X_8_2 + 266 X_8_3 + 593 X_8_4 + 739 X_8_5 + 578 X_8_6 + 625 X_8_7
  + 671 X_8_9 + 398 X_9_0 + 135 X_9_1 + 378 X_9_2 + 457 X_9_3 + 99 X_9_4 + 715 X_9_5 + 284 X_9_6
  + 408 X_9_7 + 671 X_9_8
  <= 1
 obj2:
  + 462 X_0_1 + 512 X_0_2 + 208 X_0_3 + 542 X_0_4 + 534 X_0_5 + 346 X_0_6 + 483 X_0_7 + 453 X_0_8
  + 868 X_0_9 + 462 X_1_0 + 50 X_1_2 + 413 X_1_3 + 641 X_1_4 + 598 X_1_5 + 290 X_1_6 + 867 X_1_7
  + 222 X_1_8 + 723 X_1_9 + 512 X_2_0 + 50 X_2_1 + 461 X_2_3 + 675 X_2_4 + 630 X_2_5 + 330 X_2_6
  + 916 X_2_7 + 247 X_2_8 + 730 X_2_9 + 208 X_3_0 + 413 X_3_1 + 461 X_3_2 + 346 X_3_4 + 331 X_3_5
  + 179 X_3_6 + 455 X_3_7 + 307 X_3_8 + 662 X_3_9 + 542 X_4_0 + 641 X_4_1 + 675 X_4_2 + 346 X_4_3
  + 52 X_4_5 + 355 X_4_6 + 471 X_4_7 + 434 X_4_8 + 422 X_4_9 + 534 X_5_0 + 598 X_5_1 + 630 X_5_2
  + 331 X_5_3 + 52 X_5_4 + 316 X_5_6 + 509 X_5_7 + 387 X_5_8 + 390 X_5_9 + 346 X_6_0 + 290 X_6_1
  + 330 X_6_2 + 179 X_6_3 + 355 X_6_4 + 316 X_6_5 + 615 X_6_7 + 130 X_6_8 + 548 X_6_9 + 483 X_7_0
  + 867 X_7_1 + 916 X_7_2 + 455 X_7_3 + 471 X_7_4 + 509 X_7_5 + 615 X_7_6 + 743 X_7_8 + 893 X_7_9
  + 453 X_8_0 + 222 X_8_1 + 247 X_8_2 + 307 X_8_3 + 434 X_8_4 + 387 X_8_5 + 130 X_8_6 + 743 X_8_7
  + 515 X_8_9 + 868 X_9_0 + 723 X_9_1 + 730 X_9_2 + 662 X_9_3 + 422 X_9_4 + 390 X_9_5 + 548 X_9_6
  + 893 X_9_7 + 515 X_9_8
  <= 2
 obj3:
  + 696 X_0_1 + 268 X_0_2 + 618 X_0_3 + 409 X_0_4 + 303 X_0_5 + 91 X_0_6 + 465 X_0_7 + 247 X_0_8
  + 32 X_0_9 + 696 X_1_0 + 488 X_1_2 + 133 X_1_3 + 441 X_1_4 + 488 X_1_5 + 623 X_1_6 + 485 X_1_7
  + 659 X_1_8 + 727 X_1_9 + 268 X_2_0 + 488 X_2_1 + 453 X_2_3 + 399 X_2_4 + 324 X_2_5 + 248 X_2_6
  + 210 X_2_7 + 174 X_2_8 + 292 X_2_9 + 618 X_3_0 + 133 X_3_1 + 453 X_3_2 + 315 X_3_4 + 376 X_3_5
  + 537 X_3_6 + 507 X_3_7 + 627 X_3_8 + 650 X_3_9 + 409 X_4_0 + 441 X_4_1 + 399 X_4_2 + 315 X_4_3
  + 106 X_4_5 + 318 X_4_6 + 568 X_4_7 + 539 X_4_8 + 439 X_4_9 + 303 X_5_0 + 488 X_5_1 + 324 X_5_2
  + 376 X_5_3 + 106 X_5_4 + 212 X_5_6 + 514 X_5_7 + 447 X_5_8 + 333 X_5_9 + 91 X_6_0 + 623 X_6_1
  + 248 X_6_2 + 537 X_6_3 + 318 X_6_4 + 212 X_6_5 + 457 X_6_7 + 287 X_6_8 + 122 X_6_9 + 465 X_7_0
  + 485 X_7_1 + 210 X_7_2 + 507 X_7_3 + 568 X_7_4 + 514 X_7_5 + 457 X_7_6 + 269 X_7_8 + 482 X_7_9
  + 247 X_8_0 + 659 X_8_1 + 174 X_8_2 + 627 X_8_3 + 539 X_8_4 + 447 X_8_5 + 287 X_8_6 + 269 X_8_7
  + 251 X_8_9 + 32 X_9_0 + 727 X_9_1 + 292 X_9_2 + 650 X_9_3 + 439 X_9_4 + 333 X_9_5 + 122 X_9_6
  + 482 X_9_7 + 251 X_9_8
  <= 3
 obj4:
  + 389 X_0_1 + 798 X_0_2 + 362 X_0_3 + 595 X_0_4 + 372 X_0_5 + 981 X_0_6 + 438 X_0_7 + 164 X_0_8
  + 442 X_0_9 + 389 X_1_0 + 768 X_1_2 + 443 X_1_3 + 414 X_1_4 + 712 X_1_5 + 928 X_1_6 + 753 X_1_7
  + 500 X_1_8 + 640 X_1_9 + 798 X_2_0 + 768 X_2_1 + 435 X_2_3 + 385 X_2_4 + 738 X_2_5 + 182 X_2_6
  + 687 X_2_7 + 959 X_2_8 + 465 X_2_9 + 362 X_3_0 + 443 X_3_1 + 435 X_3_2 + 324 X_3_4 + 402 X_3_5
  + 618 X_3_6 + 397 X_3_7 + 523 X_3_8 + 211 X_3_9 + 595 X_4_0 + 414 X_4_1 + 385 X_4_2 + 324 X_4_3
  + 727 X_4_5 + 524 X_4_6 + 719 X_4_7 + 757 X_4_8 + 509 X_4_9 + 372 X_5_0 + 712 X_5_1 + 738 X_5_2
  + 402 X_5_3 + 727 X_5_4 + 907 X_5_6 + 86 X_5_7 + 427 X_5_8 + 273 X_5_9 + 981 X_6_0 + 928 X_6_1
  + 182 X_6_2 + 618 X_6_3 + 524 X_6_4 + 907 X_6_5 + 850 X_6_7 + 1141 X_6_8 + 635 X_6_9 + 438 X_7_0
  + 753 X_7_1 + 687 X_7_2 + 397 X_7_3 + 719 X_7_4 + 86 X_7_5 + 850 X_7_6 + 508 X_7_8 + 229 X_7_9
  + 164 X_8_0 + 500 X_8_1 + 959 X_8_2 + 523 X_8_3 + 757 X_8_4 + 427 X_8_5 + 1141 X_8_6 + 508 X_8_7
  + 572 X_8_9 + 442 X_9_0 + 640 X_9_1 + 465 X_9_2 + 211 X_9_3 + 509 X_9_4 + 273 X_9_5 + 635 X_9_6
  + 229 X_9_7 + 572 X_9_8
  <= 4
 obj5:
  + 4 X_0_1 + 350 X_0_2 + 185 X_0_3 + 173 X_0_4 + 483 X_0_5 + 921 X_0_6 + 171 X_0_7 + 773 X_0_8
  + 833 X_0_9 + 4 X_1_0 + 353 X_1_2 + 187 X_1_3 + 176 X_1_4 + 486 X_1_5 + 924 X_1_6 + 175 X_1_7
  + 777 X_1_8 + 837 X_1_9 + 350 X_2_0 + 353 X_2_1 + 208 X_2_3 + 350 X_2_4 + 560 X_2_5 + 859 X_2_6
  + 351 X_2_7 + 440 X_2_8 + 664 X_2_9 + 185 X_3_0 + 187 X_3_1 + 208 X_3_2 + 284 X_3_4 + 578 X_3_5
  + 964 X_3_6 + 284 X_3_7 + 648 X_3_8 + 818 X_3_9 + 173 X_4_0 + 176 X_4_1 + 350 X_4_2 + 284 X_4_3
  + 311 X_4_5 + 749 X_4_6 + 2 X_4_7 + 709 X_4_8 + 681 X_4_9 + 483 X_5_0 + 486 X_5_1 + 560 X_5_2
  + 578 X_5_3 + 311 X_5_4 + 467 X_5_6 + 312 X_5_7 + 755 X_5_8 + 502 X_5_9 + 921 X_6_0 + 924 X_6_1
  + 859 X_6_2 + 964 X_6_3 + 749 X_6_4 + 467 X_6_5 + 750 X_6_7 + 800 X_6_8 + 301 X_6_9 + 171 X_7_0
  + 175 X_7_1 + 351 X_7_2 + 284 X_7_3 + 2 X_7_4 + 312 X_7_5 + 750 X_7_6 + 711 X_7_8 + 683 X_7_9
  + 773 X_8_0 + 777 X_8_1 + 440 X_8_2 + 648 X_8_3 + 709 X_8_4 + 755 X_8_5 + 800 X_8_6 + 711 X_8_7
  + 507 X_8_9 + 833 X_9_0 + 837 X_9_1 + 664 X_9_2 + 818 X_9_3 + 681 X_9_4 + 502 X_9_5 + 301 X_9_6
  + 683 X_9_7 + 507 X_9_8
  <= 5
 obj6:
  + 339 X_0_1 + 72 X_0_2 + 448 X_0_3 + 304 X_0_4 + 619 X_0_5 + 824 X_0_6 + 201 X_0_7 + 827 X_0_8
  + 621 X_0_9 + 339 X_1_0 + 410 X_1_2 + 219 X_1_3 + 567 X_1_4 + 716 X_1_5 + 668 X_1_6 + 538 X_1_7
  + 535 X_1_8 + 777 X_1_9 + 72 X_2_0 + 410 X_2_1 + 518 X_2_3 + 286 X_2_4 + 637 X_2_5 + 881 X_2_6
  + 129 X_2_7 + 898 X_2_8 + 623 X_2_9 + 448 X_3_0 + 219 X_3_1 + 518 X_3_2 + 565 X_3_4 + 581 X_3_5
  + 448 X_3_6 + 642 X_3_7 + 381 X_3_8 + 672 X_3_9 + 304 X_4_0 + 567 X_4_1 + 286 X_4_2 + 565 X_4_3
  + 394 X_4_5 + 785 X_4_6 + 286 X_4_7 + 928 X_4_8 + 348 X_4_9 + 619 X_5_0 + 716 X_5_1 + 637 X_5_2
  + 581 X_5_3 + 394 X_5_4 + 534 X_5_6 + 673 X_5_7 + 826 X_5_8 + 133 X_5_9 + 824 X_6_0 + 668 X_6_1
  + 881 X_6_2 + 448 X_6_3 + 785 X_6_4 + 534 X_6_5 + 981 X_6_7 + 393 X_6_8 + 667 X_6_9 + 201 X_7_0
  + 538 X_7_1 + 129 X_7_2 + 642 X_7_3 + 286 X_7_4 + 673 X_7_5 + 981 X_7_6 + 1023 X_7_8 + 634 X_7_9
  + 827 X_8_0 + 535 X_8_1 + 898 X_8_2 + 381 X_8_3 + 928 X_8_4 + 826 X_8_5 + 393 X_8_6 + 1023 X_8_7
  + 947 X_8_9 + 621 X_9_0 + 777 X_9_1 + 623 X_9_2 + 672 X_9_3 + 348 X_9_4 + 133 X_9_5 + 667 X_9_6
  + 634 X_9_7 + 947 X_9_8
  <= 6
 obj7:
  + 583 X_0_1 + 374 X_0_2 + 238 X_0_3 + 95 X_0_4 + 986 X_0_5 + 665 X_0_6 + 551 X_0_7 + 644 X_0_8
  + 251 X_0_9 + 583 X_1_0 + 296 X_1_2 + 540 X_1_3 + 549 X_1_4 + 417 X_1_5 + 747 X_1_6 + 535 X_1_7
  + 496 X_1_8 + 341 X_1_9 + 374 X_2_0 + 296 X_2_1 + 457 X_2_3 + 387 X_2_4 + 708 X_2_5 + 813 X_2_6
  + 295 X_2_7 + 326 X_2_8 + 232 X_2_9 + 238 X_3_0 + 540 X_3_1 + 457 X_3_2 + 143 X_3_4 + 888 X_3_5
  + 428 X_3_6 + 712 X_3_7 + 777 X_3_8 + 231 X_3_9 + 95 X_4_0 + 549 X_4_1 + 387 X_4_2 + 143 X_4_3
  + 936 X_4_5 + 571 X_4_6 + 605 X_4_7 + 686 X_4_8 + 208 X_4_9 + 986 X_5_0 + 417 X_5_1 + 708 X_5_2
  + 888 X_5_3 + 936 X_5_4 + 926 X_5_6 + 899 X_5_7 + 819 X_5_8 + 735 X_5_9 + 665 X_6_0 + 747 X_6_1
  + 813 X_6_2 + 428 X_6_3 + 571 X_6_4 + 926 X_6_5 + 1100 X_6_7 + 1138 X_6_8 + 589 X_6_9 + 551 X_7_0
  + 535 X_7_1 + 295 X_7_2 + 712 X_7_3 + 605 X_7_4 + 899 X_7_5 + 1100 X_7_6 + 131 X_7_8 + 511 X_7_9
  + 644 X_8_0 + 496 X_8_1 + 326 X_8_2 + 777 X_8_3 + 686 X_8_4 + 819 X_8_5 + 1138 X_8_6 + 131 X_8_7
  + 557 X_8_9 + 251 X_9_0 + 341 X_9_1 + 232 X_9_2 + 231 X_9_3 + 208 X_9_4 + 735 X_9_5 + 589 X_9_6
  + 511 X_9_7 + 557 X_9_8
  <= 7
Bounds
 1 <= U1 <= 9
 1 <= U2 <= 9
 1 <= U3 <= 9
 1 <= U4 <= 9
 1 <= U5 <= 9
 1 <= U6 <= 9
 1 <= U7 <= 9
 1 <= U8 <= 9
 1 <= U9 <= 9
Binary
 X_0_1
 X_0_2
 X_0_3
 X_0_4
 X_0_5
 X_0_6
 X_0_7
 X_0_8
 X_0_9
 X_1_0
 X_1_2
 X_1_3
 X_1_4
 X_1_5
 X_1_6
 X_1_7
 X_1_8
 X_1_9
 X_2_0
 X_2_1
 X_2_3
 X_2_4
 X_2_5
 X_2_6
 X_2_7
 X_2_8
 X_2_9
 X_3_0
 X_3_1
 X_3_2
 X_3_4
 X_3_5
 X_3_6
 X_3_7
 X_3_8
 X_3_9
 X_4_0
 X_4_1
 X_4_2
 X_4_3
 X_4_5
 X_4_6
 X_4_7
 X_4_8
 X_4_9
 X_5_0
 X_5_1
 X_5_2
 X_5_3
 X_5_4
 X_5_6
 X_5_7
 X_5_8
 X_5_9
 X_6_0
 X_6_1
 X_6_2
 X_6_3
 X_6_4
 X_6_5
 X_6_7
 X_6_8
 X_6_9
 X_7_0
 X_7_1
 X_7_2
 X_7_3
 X_7_4
 X_7_5
 X_7_6
 X_7_8
 X_7_9
 X_8_0
 X_8_1
 X_8_2
 X_8_3
 X_8_4
 X_8_5
 X_8_6
 X_8_7
 X_8_9
 X_9_0
 X_9_1
 X_9_2
 X_9_3
 X_9_4
 X_9_5
 X_9_6
 X_9_7
 X_9_8
End
